8
0 26 22 22 21 95 48 32 
26 0 70 75 16 34 64 59 
22 70 0 10 33 57 96 82 
22 75 10 0 61 20 31 15 
21 16 33 61 0 34 28 84 
95 34 57 20 34 0 65 54 
48 64 96 31 28 65 0 93 
32 59 82 15 84 54 93 0 
BRRRRBBB
